NAME : amz1617.1629362_126362.tour
COMMENT : Cost = 1629362_126362
COMMENT : Found by LKH-AMZ [Keld Helsgaun] Sun May 11 13:20:58 2025
COMMENT : TW viol.: 0 #: 0
TYPE : TOUR
DIMENSION : 169
TOUR_SECTION
31
46
145
113
33
44
128
21
108
164
159
127
59
97
117
141
148
64
112
58
12
23
25
15
107
123
34
152
156
80
65
19
150
125
151
11
147
51
41
6
62
134
93
144
121
56
26
69
140
75
38
71
20
81
136
57
13
36
168
130
35
82
106
18
48
124
105
98
72
101
166
139
158
96
86
91
43
137
52
146
135
118
66
132
77
111
157
85
50
2
7
78
22
169
167
114
4
24
30
161
84
79
42
149
94
39
29
153
68
88
89
95
142
54
155
49
122
131
70
73
119
138
104
154
45
163
17
76
40
133
83
5
116
8
53
37
103
110
16
27
55
165
129
74
9
92
120
115
162
67
14
1
99
143
60
3
90
87
160
61
32
100
10
28
47
102
126
63
109
-1
EOF
